20 43
5 20 5
5 10 3
5 8 4
5 15 3
10 20 2
10 15 5
8 20 3
8 10 5
8 15 3
15 20 5
12 13 5
12 18 4
12 15 4
11 12 3
11 13 4
11 18 5
13 18 3
7 12 4
7 11 4
7 13 5
7 18 3
7 17 2
16 17 5
1 17 1
1 16 5
1 6 1
1 4 5
6 17 2
6 16 5
4 17 2
4 16 2
4 6 3
2 9 5
2 19 4
2 14 3
2 3 4
2 4 4
9 19 5
9 14 2
14 19 5
3 9 3
3 19 3
3 14 1
